(set-info :smt-lib-version 2.6)
(set-logic QF_DT)
(set-info :source |
Generated by: Federico Mora
Generated on: 2023-07-20
Generator: z3 Python bindings via UCLID5 Python API
Application: Blocksworld Automated Reasoning Problems.
Target solvers: Algaroba, cvc5, Z3, Princess
Publications: Shah, Mora and Seshia. An Eager Satisfiability Modulo Theories Solver for Algebraic Datatypes. AAAI ’24 |)
(set-info :license "https://creativecommons.org/licenses/by/4.0/")
(set-info :category "industrial")
(set-info :status unsat) 
(declare-datatypes ((Enum_A_B_C_D_E_F_G 0)) (((A) (B) (C) (D) (E) (F) (G))))
(declare-datatypes ((Tower 0)) (((stack (top Enum_A_B_C_D_E_F_G) (rest Tower)) (empty))))
(declare-datatypes ((Record_left_center_right 0)) (((Record_left_center_right (left Tower) (center Tower) (right Tower)))))
(declare-datatypes ((Enum_left-to-center_left-to-right_center-to-left_center-to-right_right-to-left_right-to-center 0)) (((left-to-center) (left-to-right) (center-to-left) (center-to-right) (right-to-left) (right-to-center))))
(declare-fun s () Record_left_center_right)
(declare-fun s_tmp () Record_left_center_right)
(declare-fun c () Enum_left-to-center_left-to-right_center-to-left_center-to-right_right-to-left_right-to-center)
(declare-fun c_tmp () Enum_left-to-center_left-to-right_center-to-left_center-to-right_right-to-left_right-to-center)
(declare-fun s_tmp_ () Record_left_center_right)
(declare-fun s_tmp__ () Record_left_center_right)
(declare-fun s_tmp___ () Record_left_center_right)
(declare-fun c!0 () Enum_left-to-center_left-to-right_center-to-left_center-to-right_right-to-left_right-to-center)
(declare-fun c_tmp____ () Enum_left-to-center_left-to-right_center-to-left_center-to-right_right-to-left_right-to-center)
(declare-fun s_ () Record_left_center_right)
(declare-fun c_ () Enum_left-to-center_left-to-right_center-to-left_center-to-right_right-to-left_right-to-center)
(assert
 (= s_tmp s))
(assert
 (= c_tmp c))
(assert
 (let ((?x19 (stack G empty)))
 (let ((?x20 (stack A ?x19)))
 (let ((?x21 (stack F ?x20)))
 (let ((?x22 (stack E ?x21)))
 (let ((?x77 (left s_tmp_)))
 (= ?x77 ?x22)))))))
(assert
 (let ((?x23 (stack D empty)))
 (let ((?x80 (center s_tmp__)))
 (= ?x80 ?x23))))
(assert
 (let ((?x24 (stack B empty)))
 (let ((?x25 (stack C ?x24)))
 (let ((?x83 (right s_tmp___)))
 (= ?x83 ?x25)))))
(assert
 (= c_tmp____ c!0))
(assert
 (= s_ s_tmp___))
(assert
 (= c_ c_tmp____))
(assert
 (let ((?x110 (left s_tmp__)))
 (= (left s_tmp___) ?x110)))
(assert
 (let ((?x80 (center s_tmp__)))
 (= (center s_tmp___) ?x80)))
(assert
 (let ((?x114 (center s_tmp_)))
 (= ?x114 (center s_tmp))))
(assert
 (let ((?x117 (right s_tmp_)))
 (= ?x117 (right s_tmp))))
(assert
 (let ((?x77 (left s_tmp_)))
 (let ((?x110 (left s_tmp__)))
 (= ?x110 ?x77))))
(assert
 (let ((?x117 (right s_tmp_)))
 (let ((?x121 (right s_tmp__)))
 (= ?x121 ?x117))))
(assert
 (let ((?x27 (stack E empty)))
 (let ((?x26 (stack A ?x27)))
 (let ((?x28 (stack D ?x26)))
 (let ((?x29 (stack C ?x28)))
 (let ((?x54 (left s_)))
 (let (($x126 (and (= ?x54 ?x29) (= (center s_) (stack F (stack G empty))) (= (right s_) (stack B empty)))))
 (let (($x127 (not $x126)))
 (not $x127)))))))))
(check-sat)
(exit)
